TYPE : Vertex Cover
DIMENSION: 30
EDGE_DATA_SECTION:
0 10
0 12
0 14
0 15
0 18
0 26
1 15
1 23
2 24
3 4
3 5
3 8
3 9
3 14
3 19
3 20
3 21
4 13
4 25
5 12
5 15
5 17
5 18
5 27
7 29
8 15
8 22
8 23
8 27
9 11
9 15
9 25
9 28
10 18
10 24
11 15
11 29
12 20
12 21
13 20
13 23
13 24
14 15
14 23
15 23
15 28
16 24
17 21
17 23
18 27
18 28
20 27
21 29
22 25
26 28
28 29
-1
VERTEX_DEGREE:
6.0 2.0 1.0 8.0 3.0 6.0 0.0 1.0 5.0 5.0 3.0 3.0 4.0 4.0 4.0 9.0 1.0 3.0 5.0 1.0 4.0 4.0 2.0 6.0 4.0 3.0 2.0 4.0 5.0 4.0
VERTEX_COVER:
0 3 4 5 8 9 15 18 20 21 23 24 25 26 29
EOF
